1562.0 18782.0 23.0 
1475.0 18894.0 516.0 
1558.0 18886.0 0.0 
1503.0 18748.0 116.0 
1526.0 18902.0 0.0 
1515.0 18868.0 59.0 
1495.0 18869.0 236.0 
1515.0 18868.0 59.0 
1562.0 18782.0 23.0 
1497.0 18784.0 153.0 
1495.0 18814.0 278.0 
1514.0 18899.0 2.0 
1562.0 18782.0 23.0 
1513.0 19085.0 21.0 
1518.0 18820.0 30.0 
1497.0 18784.0 153.0 
1526.0 18902.0 0.0 
1513.0 18997.0 38.0 
1558.0 18886.0 0.0 
1479.0 19077.0 404.0 
1514.0 18899.0 2.0 
1518.0 18820.0 30.0 
1489.0 19045.0 361.0 
1514.0 18899.0 2.0 
1493.0 18840.0 393.0 
1484.0 18867.0 507.0 
1488.0 18855.0 479.0 
1524.0 18924.0 0.0 
1558.0 18886.0 0.0 
1469.0 19655.0 1487.0 
